PROBLEM NAME: small_7_UncorrelatedWithSimilarWeights_n14_m39_c10
KNAPSACK DATA TYPE:
DIMENSION: 14
NUMBER OF ITEMS: 39
CAPACITY OF KNAPSACK: 35617
MIN SPEED: 0.1
MAX SPEED: 1.0
RENTING RATIO: 1.0
EDGE_WEIGHT_TYPE: CEIL_2D
NODE_COORD_SECTION	(INDEX, X, Y): 
1	485	574
2	964	68
3	998	271
4	256	18
5	538	582
6	45	428
7	463	443
8	279	878
9	399	213
10	198	855
11	796	51
12	795	512
13	537	823
14	509	627
ITEMS SECTION	(INDEX, PROFIT, WEIGHT, ASSIGNED NODE NUMBER): 
1	323	1004	2
2	789	1009	2
3	16	1000	2
4	524	1004	3
5	232	1008	3
6	63	1003	3
7	743	1004	4
8	116	1005	4
9	128	1002	4
10	811	1010	5
11	493	1001	5
12	168	1003	5
13	13	1002	6
14	419	1007	6
15	849	1006	6
16	439	1000	7
17	485	1009	7
18	736	1002	7
19	926	1008	8
20	425	1009	8
21	364	1008	8
22	596	1006	9
23	669	1000	9
24	584	1006	9
25	56	1005	10
26	288	1006	10
27	984	1003	10
28	544	1010	11
29	649	1003	11
30	332	1003	11
31	629	1004	12
32	846	1000	12
33	729	1007	12
34	957	1002	13
35	655	1000	13
36	41	1001	13
37	364	1009	14
38	531	1006	14
39	172	1004	14
